feasible solution found by trivial heuristic after 2.7 seconds, objective value 0.000000e+00
presolving:
(round 1, fast)       93534 del vars, 185660 del conss, 0 add conss, 553650 chg bounds, 0 chg sides, 0 chg coeffs, 0 upgd conss, 0 impls, 1834 clqs
(round 2, fast)       282885 del vars, 189351 del conss, 0 add conss, 741891 chg bounds, 0 chg sides, 0 chg coeffs, 0 upgd conss, 0 impls, 1834 clqs
   (5.6s) running MILP presolver
   (5.7s) MILP presolver found nothing
(round 3, exhaustive) 282885 del vars, 189351 del conss, 0 add conss, 741891 chg bounds, 0 chg sides, 0 chg coeffs, 5525 upgd conss, 0 impls, 5525 clqs
   (5.8s) probing: 51/1110 (4.6%) - 0 fixings, 0 aggregations, 0 implications, 0 bound changes
   (5.8s) probing aborted: 50/50 successive totally useless probings
   (5.8s) symmetry computation started: requiring (bin +, int -, cont +), (fixed: bin -, int +, cont -)
   (5.8s) no symmetry present
presolving (4 rounds: 4 fast, 2 medium, 2 exhaustive):
 282885 deleted vars, 189351 deleted constraints, 0 added constraints, 741891 tightened bounds, 0 added holes, 0 changed sides, 0 changed coefficients
 0 implications, 5525 cliques
presolved problem has 1110 variables (1110 bin, 0 int, 0 impl, 0 cont) and 5525 constraints
   5525 constraints of type <setppc>
Presolving Time: 3.99

 time | node  | left  |LP iter|LP it/n|mem/heur|mdpt |vars |cons |rows |cuts |sepa|confs|strbr|  dualbound   | primalbound  |  gap   | compl. 
t 5.8s|     1 |     0 |     0 |     - | trivial|   0 |1110 |5525 |   0 |   0 |  0 |   0 |   0 | 5.636962e+04 | 2.292619e+03 |2358.74%| unknown
p 5.8s|     1 |     0 |     0 |     - |  clique|   0 |1110 |5525 |5525 |   0 |  0 |   0 |   0 | 5.636962e+04 | 1.939462e+04 | 190.65%| unknown
p 5.8s|     1 |     0 |     0 |     - |   locks|   0 |1110 |5525 |5525 |   0 |  0 |   0 |   0 | 5.636962e+04 | 2.347362e+04 | 140.14%| unknown
i 5.9s|     1 |     0 |     0 |     - |  oneopt|   0 |1110 |5525 |5525 |   0 |  0 |   0 |   0 | 5.636962e+04 | 2.371262e+04 | 137.72%| unknown
  5.9s|     1 |     0 |  1560 |     - |   794M |   0 |1110 |5525 |5525 |   0 |  0 |   0 |   0 | 2.933112e+04 | 2.371262e+04 |  23.69%| unknown
  6.4s|     1 |     0 |  1580 |     - |   797M |   0 |1110 |5525 |5526 |   1 |  1 |   0 |   0 | 2.929662e+04 | 2.371262e+04 |  23.55%| unknown
  6.7s|     1 |     0 |  1597 |     - |   798M |   0 |1110 |5525 |5527 |   2 |  2 |   0 |   0 | 2.926012e+04 | 2.371262e+04 |  23.39%| unknown
  7.4s|     1 |     0 |  2111 |     - |   798M |   0 |1110 |5525 |5570 |  45 |  3 |   0 |   0 | 2.884512e+04 | 2.371262e+04 |  21.64%| unknown
  8.2s|     1 |     0 |  2382 |     - |   799M |   0 |1110 |5525 |5586 |  61 |  4 |   0 |   0 | 2.871862e+04 | 2.371262e+04 |  21.11%| unknown
  9.0s|     1 |     0 |  2603 |     - |   800M |   0 |1110 |5525 |5596 |  71 |  5 |   0 |   0 | 2.862662e+04 | 2.371262e+04 |  20.72%| unknown
  9.8s|     1 |     0 |  3311 |     - |   801M |   0 |1110 |5525 |5629 | 104 |  6 |   0 |   0 | 2.845821e+04 | 2.371262e+04 |  20.01%| unknown
 12.7s|     1 |     0 |  3644 |     - |   802M |   0 |1110 |5525 |5641 | 116 |  7 |   0 |   0 | 2.839302e+04 | 2.371262e+04 |  19.74%| unknown
 15.2s|     1 |     0 |  4022 |     - |   803M |   0 |1110 |5525 |5649 | 124 |  8 |   0 |   0 | 2.833012e+04 | 2.371262e+04 |  19.47%| unknown
 16.9s|     1 |     0 |  4299 |     - |   804M |   0 |1110 |5525 |5657 | 132 |  9 |   0 |   0 | 2.827893e+04 | 2.371262e+04 |  19.26%| unknown
 18.9s|     1 |     0 |  4752 |     - |   805M |   0 |1110 |5525 |5672 | 147 | 10 |   0 |   0 | 2.822431e+04 | 2.371262e+04 |  19.03%| unknown
 time | node  | left  |LP iter|LP it/n|mem/heur|mdpt |vars |cons |rows |cuts |sepa|confs|strbr|  dualbound   | primalbound  |  gap   | compl. 
 19.2s|     1 |     0 |  5238 |     - |   806M |   0 |1110 |5525 |5686 | 161 | 11 |   0 |   0 | 2.816562e+04 | 2.371262e+04 |  18.78%| unknown
 19.3s|     1 |     0 |  5487 |     - |   807M |   0 |1110 |5525 |5692 | 167 | 12 |   0 |   0 | 2.814459e+04 | 2.371262e+04 |  18.69%| unknown
 19.5s|     1 |     0 |  5710 |     - |   807M |   0 |1110 |5525 |5698 | 173 | 13 |   0 |   0 | 2.812006e+04 | 2.371262e+04 |  18.59%| unknown
 19.6s|     1 |     0 |  5842 |     - |   808M |   0 |1110 |5525 |5702 | 177 | 14 |   0 |   0 | 2.811093e+04 | 2.371262e+04 |  18.55%| unknown
 19.8s|     1 |     0 |  6141 |     - |   809M |   0 |1110 |5525 |5706 | 181 | 15 |   0 |   0 | 2.808576e+04 | 2.371262e+04 |  18.44%| unknown
 20.0s|     1 |     0 |  6305 |     - |   810M |   0 |1110 |5525 |5711 | 186 | 16 |   0 |   0 | 2.807087e+04 | 2.371262e+04 |  18.38%| unknown
 20.1s|     1 |     0 |  6444 |     - |   810M |   0 |1110 |5525 |5693 | 189 | 17 |   0 |   0 | 2.806582e+04 | 2.371262e+04 |  18.36%| unknown
 20.3s|     1 |     0 |  6650 |     - |   811M |   0 |1110 |5525 |5705 | 201 | 18 |   0 |   0 | 2.805355e+04 | 2.371262e+04 |  18.31%| unknown
 20.4s|     1 |     0 |  6687 |     - |   812M |   0 |1110 |5525 |5707 | 203 | 19 |   0 |   0 | 2.805278e+04 | 2.371262e+04 |  18.30%| unknown
 20.6s|     1 |     0 |  6944 |     - |   812M |   0 |1110 |5525 |5717 | 213 | 20 |   0 |   0 | 2.804189e+04 | 2.371262e+04 |  18.26%| unknown
 20.7s|     1 |     0 |  7035 |     - |   812M |   0 |1110 |5525 |5721 | 217 | 21 |   0 |   0 | 2.804022e+04 | 2.371262e+04 |  18.25%| unknown
 20.8s|     1 |     0 |  7050 |     - |   812M |   0 |1110 |5525 |5722 | 218 | 22 |   0 |   0 | 2.804016e+04 | 2.371262e+04 |  18.25%| unknown
d21.5s|     1 |     0 |  9406 |     - |farkasdi|   0 |1110 |5525 |5722 |   0 | 24 |   0 |   0 | 2.804016e+04 | 2.606062e+04 |   7.60%| unknown
d21.5s|     1 |     0 |  9415 |     - |farkasdi|   0 |1110 |5525 |5722 |   0 | 24 |   0 |   0 | 2.804016e+04 | 2.666462e+04 |   5.16%| unknown
d21.5s|     1 |     0 |  9424 |     - |farkasdi|   0 |1110 |5525 |5722 |   0 | 24 |   0 |   0 | 2.804016e+04 | 2.675962e+04 |   4.79%| unknown
 time | node  | left  |LP iter|LP it/n|mem/heur|mdpt |vars |cons |rows |cuts |sepa|confs|strbr|  dualbound   | primalbound  |  gap   | compl. 
d21.5s|     1 |     0 |  9425 |     - |farkasdi|   0 |1110 |5525 |5722 |   0 | 24 |   0 |   0 | 2.804016e+04 | 2.736862e+04 |   2.45%| unknown
 21.6s|     1 |     0 |  9425 |     - |   813M |   0 |1110 |5525 |5722 | 218 | 24 |   0 |   0 | 2.804016e+04 | 2.736862e+04 |   2.45%| unknown
 21.7s|     1 |     0 |  9488 |     - |   813M |   0 |1110 |5525 |5703 | 220 | 25 |   0 |   0 | 2.803899e+04 | 2.736862e+04 |   2.45%| unknown
 30.0s|     1 |     2 |  9488 |     - |   813M |   0 |1110 |5525 |5703 | 220 | 26 |   0 |  38 | 2.800152e+04 | 2.736862e+04 |   2.31%| unknown
*34.8s|     3 |     2 | 10542 |1714.5 |strongbr|   2 |1110 |5525 |5676 | 220 |  1 |   0 |  76 | 2.800152e+04 | 2.769562e+04 |   1.10%| unknown
*35.3s|     3 |     2 | 10542 |1714.5 |strongbr|   2 |1110 |5525 |5676 | 220 |  1 |   0 |  81 | 2.800152e+04 | 2.771062e+04 |   1.05%| unknown
*35.3s|     3 |     2 | 10703 |1795.0 |    LP  |   2 |1110 |5525 |5676 | 220 |  2 |   0 |  82 | 2.800152e+04 | 2.772562e+04 |   1.00%| unknown
*52.6s|    11 |     2 | 14105 | 699.2 |strongbr|   4 |1110 |5554 |5676 | 220 |  1 |  43 | 221 | 2.797243e+04 | 2.773662e+04 |   0.85%|  46.52%

SCIP Status        : problem is solved [optimal solution found]
Solving Time (sec) : 92.12
Solving Nodes      : 95
Primal Bound       : +2.77366188545427e+04 (261 solutions)
Dual Bound         : +2.77366188545427e+04
Gap                : 0.00 %
Solve Status: optimal
Solve Time: 92.23 seconds
